
        $ From http://www.csplib.org/Problems/prob009/data/helmut.pdf
        $ Problem number 117
        $ Sequence length : 25
        language ESSENCE' 1.0
        letting sizemaster be 384
        letting sizes be sequence(3,5,7,11,12,17,20,22,25,29,35,47,48,55,56,57,69,72,76,80,96,100,116,172,212)
        